 $CONTRL COORD=CART UNITS=ANGS $END
 $DATA
Ethene
Put symmetry info here

C      6.0    -0.66950   0.01060  -0.01170 
C      6.0     0.66940  -0.01070   0.01130 
H      1.0    -1.21240   0.96720  -0.02120 
H      1.0    -1.24260  -0.92820  -0.02130 
H      1.0     1.24260   0.92810   0.02090 
H      1.0     1.21240  -0.96720   0.02080 
 $END


