 $CONTRL COORD=CART UNITS=ANGS $END
 $DATA
Benzene
Put symmetry info here

C      6.0    -0.17360   1.38900   0.00000 
C      6.0    -1.28990   0.54390   0.00000 
C      6.0    -1.11610  -0.84520   0.00000 
C      6.0     0.17400  -1.38930   0.00000 
C      6.0     1.29000  -0.54430   0.00000 
C      6.0     1.11620   0.84500   0.00000 
H      1.0    -0.30990   2.48060   0.00000 
H      1.0    -2.30350   0.97120   0.00000 
H      1.0    -1.99320  -1.50900   0.00000 
H      1.0     0.31070  -2.48080   0.00000 
H      1.0     2.30350  -0.97200   0.00000 
H      1.0     1.99310   1.50920   0.00000 
 $END


