 $CONTRL COORD=CART UNITS=ANGS $END
 $DATA
Methane
Put symmetry info here

C      6.0    -0.36610  -0.25930   0.00000 
H      1.0     0.74690  -0.25890   0.00000 
H      1.0    -0.73690  -0.78410   0.90880 
H      1.0    -0.73690  -0.78410  -0.90880 
H      1.0    -0.73740   0.78990   0.00000 
 $END


