 $CONTRL COORD=CART UNITS=ANGS $END
 $DATA
Ethane
Put symmetry info here

C      6.0    -0.76570   0.00930  -0.00720 
C      6.0     0.76570  -0.00930   0.00720 
H      1.0    -1.15230   1.05480  -0.01100 
H      1.0    -1.17980  -0.50610   0.89030 
H      1.0    -1.16290  -0.50630  -0.91220 
H      1.0     1.16290   0.50630   0.91220 
H      1.0     1.17980   0.50600  -0.89040 
H      1.0     1.15240  -1.05480   0.01090 
 $END


